wmc_benchmarks/WMCBench/realamprandom_nativegates_ibm_qiskit_opt0_3.qasm.cnf
p cnf 274 1380
c p weight 10 1.0 0
c p weight -10 1 0
c p weight 11 0 0
c p weight -11 1 0
c p weight 14 0 0
c p weight -14 1 0
c p weight 15 1.0 0
c p weight -15 1 0
c p weight 18 -0.13356123962598324 0
c p weight -18 1 0
c p weight 19 0.9910405618689735 0
c p weight -19 1 0
c p weight 22 0 0
c p weight -22 1 0
c p weight 23 1.0 0
c p weight -23 1 0
c p weight 26 -1.0 0
c p weight -26 1 0
c p weight 27 0 0
c p weight -27 1 0
c p weight 30 1.0 0
c p weight -30 1 0
c p weight 31 0 0
c p weight -31 1 0
c p weight 34 0 0
c p weight -34 1 0
c p weight 35 1.0 0
c p weight -35 1 0
c p weight 38 -0.9915114763949924 0
c p weight -38 1 0
c p weight 39 -0.13001919926311817 0
c p weight -39 1 0
c p weight 42 0 0
c p weight -42 1 0
c p weight 43 1.0 0
c p weight -43 1 0
c p weight 46 -1.0 0
c p weight -46 1 0
c p weight 47 0 0
c p weight -47 1 0
c p weight 53 1.0 0
c p weight -53 1 0
c p weight 54 0 0
c p weight -54 1 0
c p weight 57 0 0
c p weight -57 1 0
c p weight 58 1.0 0
c p weight -58 1 0
c p weight 61 0.6676589223122142 0
c p weight -61 1 0
c p weight 62 0.7444673018050508 0
c p weight -62 1 0
c p weight 65 0 0
c p weight -65 1 0
c p weight 66 1.0 0
c p weight -66 1 0
c p weight 69 -1.0 0
c p weight -69 1 0
c p weight 70 0 0
c p weight -70 1 0
c p weight 76 1.0 0
c p weight -76 1 0
c p weight 77 0 0
c p weight -77 1 0
c p weight 80 0 0
c p weight -80 1 0
c p weight 81 1.0 0
c p weight -81 1 0
c p weight 84 0.007515356911958584 0
c p weight -84 1 0
c p weight 85 0.9999717593064745 0
c p weight -85 1 0
c p weight 88 0 0
c p weight -88 1 0
c p weight 89 1.0 0
c p weight -89 1 0
c p weight 92 -1.0 0
c p weight -92 1 0
c p weight 93 0 0
c p weight -93 1 0
c p weight 99 1.0 0
c p weight -99 1 0
c p weight 100 0 0
c p weight -100 1 0
c p weight 103 0 0
c p weight -103 1 0
c p weight 104 1.0 0
c p weight -104 1 0
c p weight 107 0.9999560013841363 0
c p weight -107 1 0
c p weight 108 -0.009380580784219286 0
c p weight -108 1 0
c p weight 111 0 0
c p weight -111 1 0
c p weight 112 1.0 0
c p weight -112 1 0
c p weight 115 -1.0 0
c p weight -115 1 0
c p weight 116 0 0
c p weight -116 1 0
c p weight 122 1.0 0
c p weight -122 1 0
c p weight 123 0 0
c p weight -123 1 0
c p weight 126 0 0
c p weight -126 1 0
c p weight 127 1.0 0
c p weight -127 1 0
c p weight 130 -0.15769632003857545 0
c p weight -130 1 0
c p weight 131 -0.9874876559462863 0
c p weight -131 1 0
c p weight 134 0 0
c p weight -134 1 0
c p weight 135 1.0 0
c p weight -135 1 0
c p weight 138 -1.0 0
c p weight -138 1 0
c p weight 139 0 0
c p weight -139 1 0
c p weight 145 1.0 0
c p weight -145 1 0
c p weight 146 0 0
c p weight -146 1 0
c p weight 149 0 0
c p weight -149 1 0
c p weight 150 1.0 0
c p weight -150 1 0
c p weight 153 -0.32056948953638575 0
c p weight -153 1 0
c p weight 154 -0.9472250009255356 0
c p weight -154 1 0
c p weight 157 0 0
c p weight -157 1 0
c p weight 158 1.0 0
c p weight -158 1 0
c p weight 161 -1.0 0
c p weight -161 1 0
c p weight 162 0 0
c p weight -162 1 0
c p weight 168 1.0 0
c p weight -168 1 0
c p weight 169 0 0
c p weight -169 1 0
c p weight 172 0 0
c p weight -172 1 0
c p weight 173 1.0 0
c p weight -173 1 0
c p weight 176 -0.0661181473607896 0
c p weight -176 1 0
c p weight 177 0.9978118011877676 0
c p weight -177 1 0
c p weight 180 0 0
c p weight -180 1 0
c p weight 181 1.0 0
c p weight -181 1 0
c p weight 184 -1.0 0
c p weight -184 1 0
c p weight 185 0 0
c p weight -185 1 0
c p weight 191 1.0 0
c p weight -191 1 0
c p weight 192 0 0
c p weight -192 1 0
c p weight 195 0 0
c p weight -195 1 0
c p weight 196 1.0 0
c p weight -196 1 0
c p weight 199 -0.48664186183014163 0
c p weight -199 1 0
c p weight 200 -0.8736015672573472 0
c p weight -200 1 0
c p weight 203 0 0
c p weight -203 1 0
c p weight 204 1.0 0
c p weight -204 1 0
c p weight 207 -1.0 0
c p weight -207 1 0
c p weight 208 0 0
c p weight -208 1 0
c p weight 214 1.0 0
c p weight -214 1 0
c p weight 215 0 0
c p weight -215 1 0
c p weight 218 0 0
c p weight -218 1 0
c p weight 219 1.0 0
c p weight -219 1 0
c p weight 222 -0.8498712344720905 0
c p weight -222 1 0
c p weight 223 -0.5269904029646887 0
c p weight -223 1 0
c p weight 226 0 0
c p weight -226 1 0
c p weight 227 1.0 0
c p weight -227 1 0
c p weight 230 -1.0 0
c p weight -230 1 0
c p weight 231 0 0
c p weight -231 1 0
c p weight 237 1.0 0
c p weight -237 1 0
c p weight 238 0 0
c p weight -238 1 0
c p weight 241 0 0
c p weight -241 1 0
c p weight 242 1.0 0
c p weight -242 1 0
c p weight 245 0.39507201275466863 0
c p weight -245 1 0
c p weight 246 0.9186501536156051 0
c p weight -246 1 0
c p weight 249 0 0
c p weight -249 1 0
c p weight 250 1.0 0
c p weight -250 1 0
c p weight 253 -1.0 0
c p weight -253 1 0
c p weight 254 0 0
c p weight -254 1 0
c p weight 257 1.0 0
c p weight -257 1 0
c p weight 258 0 0
c p weight -258 1 0
c p weight 261 0 0
c p weight -261 1 0
c p weight 262 1.0 0
c p weight -262 1 0
c p weight 265 -0.9574284152496735 0
c p weight -265 1 0
c p weight 266 0.288670798094471 0
c p weight -266 1 0
c p weight 269 0 0
c p weight -269 1 0
c p weight 270 1.0 0
c p weight -270 1 0
c p weight 273 -1.0 0
c p weight -273 1 0
c p weight 274 0 0
c p weight -274 1 0
8 -7 1 0
8 -7 2 0
-8 7 1 0
-8 7 2 0
8 -9 -7 0
-8 -9 7 0
8 9 7 -1 -2 0
-8 9 -7 -1 -2 0
9 1 -2 0
-9 1 2 0
-10 1 0
9 -10 -2 0
-9 -10 2 0
9 10 -1 2 0
-9 10 -1 -2 0
-11 1 0
9 -11 2 0
-9 -11 -2 0
9 11 -1 -2 0
-9 11 -1 2 0
12 13 -8 0
12 -8 9 0
-12 13 8 0
-12 8 9 0
12 -8 -1 0
-12 8 -1 0
12 -13 8 1 -9 0
-12 -13 -8 1 -9 0
13 -1 9 0
-13 1 9 0
-14 9 0
13 -14 -1 0
-13 -14 1 0
13 14 1 -9 0
-13 14 -1 -9 0
-15 9 0
13 -15 1 0
-13 -15 -1 0
13 15 -1 -9 0
-13 15 1 -9 0
16 -12 13 0
16 -12 9 0
-16 12 13 0
-16 12 9 0
16 -17 -12 0
-16 -17 12 0
16 17 12 -13 -9 0
-16 17 -12 -13 -9 0
17 13 -9 0
-17 13 9 0
-18 13 0
17 -18 -9 0
-17 -18 9 0
17 18 -13 9 0
-17 18 -13 -9 0
-19 13 0
17 -19 9 0
-17 -19 -9 0
17 19 -13 -9 0
-17 19 -13 9 0
20 21 -16 0
20 -16 17 0
-20 21 16 0
-20 16 17 0
20 -16 -13 0
-20 16 -13 0
20 -21 16 13 -17 0
-20 -21 -16 13 -17 0
21 -13 17 0
-21 13 17 0
-22 17 0
21 -22 -13 0
-21 -22 13 0
21 22 13 -17 0
-21 22 -13 -17 0
-23 17 0
21 -23 13 0
-21 -23 -13 0
21 23 -13 -17 0
-21 23 13 -17 0
24 -20 21 0
24 -20 17 0
-24 20 21 0
-24 20 17 0
24 -25 -20 0
-24 -25 20 0
24 25 20 -21 -17 0
-24 25 -20 -21 -17 0
25 21 -17 0
-25 21 17 0
-26 21 0
25 -26 -17 0
-25 -26 17 0
25 26 -21 17 0
-25 26 -21 -17 0
-27 21 0
25 -27 17 0
-25 -27 -17 0
25 27 -21 -17 0
-25 27 -21 17 0
28 -24 3 0
28 -24 4 0
-28 24 3 0
-28 24 4 0
28 -29 -24 0
-28 -29 24 0
28 29 24 -3 -4 0
-28 29 -24 -3 -4 0
29 3 -4 0
-29 3 4 0
-30 3 0
29 -30 -4 0
-29 -30 4 0
29 30 -3 4 0
-29 30 -3 -4 0
-31 3 0
29 -31 4 0
-29 -31 -4 0
29 31 -3 -4 0
-29 31 -3 4 0
32 33 -28 0
32 -28 29 0
-32 33 28 0
-32 28 29 0
32 -28 -3 0
-32 28 -3 0
32 -33 28 3 -29 0
-32 -33 -28 3 -29 0
33 -3 29 0
-33 3 29 0
-34 29 0
33 -34 -3 0
-33 -34 3 0
33 34 3 -29 0
-33 34 -3 -29 0
-35 29 0
33 -35 3 0
-33 -35 -3 0
33 35 -3 -29 0
-33 35 3 -29 0
36 -32 33 0
36 -32 29 0
-36 32 33 0
-36 32 29 0
36 -37 -32 0
-36 -37 32 0
36 37 32 -33 -29 0
-36 37 -32 -33 -29 0
37 33 -29 0
-37 33 29 0
-38 33 0
37 -38 -29 0
-37 -38 29 0
37 38 -33 29 0
-37 38 -33 -29 0
-39 33 0
37 -39 29 0
-37 -39 -29 0
37 39 -33 -29 0
-37 39 -33 29 0
40 41 -36 0
40 -36 37 0
-40 41 36 0
-40 36 37 0
40 -36 -33 0
-40 36 -33 0
40 -41 36 33 -37 0
-40 -41 -36 33 -37 0
41 -33 37 0
-41 33 37 0
-42 37 0
41 -42 -33 0
-41 -42 33 0
41 42 33 -37 0
-41 42 -33 -37 0
-43 37 0
41 -43 33 0
-41 -43 -33 0
41 43 -33 -37 0
-41 43 33 -37 0
44 -40 41 0
44 -40 37 0
-44 40 41 0
-44 40 37 0
44 -45 -40 0
-44 -45 40 0
44 45 40 -41 -37 0
-44 45 -40 -41 -37 0
45 41 -37 0
-45 41 37 0
-46 41 0
45 -46 -37 0
-45 -46 37 0
45 46 -41 37 0
-45 46 -41 -37 0
-47 41 0
45 -47 37 0
-45 -47 -37 0
45 47 -41 -37 0
-45 47 -41 37 0
48 -44 21 0
48 -44 45 0
-48 44 21 0
-48 44 45 0
48 -44 41 -25 0
48 -44 -41 25 0
-48 44 41 -25 0
-48 44 -41 25 0
48 44 -21 41 25 -45 0
48 44 -21 -41 -25 -45 0
-48 -44 -21 41 25 -45 0
-48 -44 -21 -41 -25 -45 0
50 21 -41 0
50 -21 41 0
-50 21 41 0
-50 -21 -41 0
49 25 -45 0
49 -25 45 0
-49 25 45 0
-49 -25 -45 0
51 -48 5 0
51 -48 6 0
-51 48 5 0
-51 48 6 0
51 -52 -48 0
-51 -52 48 0
51 52 48 -5 -6 0
-51 52 -48 -5 -6 0
52 5 -6 0
-52 5 6 0
-53 5 0
52 -53 -6 0
-52 -53 6 0
52 53 -5 6 0
-52 53 -5 -6 0
-54 5 0
52 -54 6 0
-52 -54 -6 0
52 54 -5 -6 0
-52 54 -5 6 0
55 56 -51 0
55 -51 52 0
-55 56 51 0
-55 51 52 0
55 -51 -5 0
-55 51 -5 0
55 -56 51 5 -52 0
-55 -56 -51 5 -52 0
56 -5 52 0
-56 5 52 0
-57 52 0
56 -57 -5 0
-56 -57 5 0
56 57 5 -52 0
-56 57 -5 -52 0
-58 52 0
56 -58 5 0
-56 -58 -5 0
56 58 -5 -52 0
-56 58 5 -52 0
59 -55 56 0
59 -55 52 0
-59 55 56 0
-59 55 52 0
59 -60 -55 0
-59 -60 55 0
59 60 55 -56 -52 0
-59 60 -55 -56 -52 0
60 56 -52 0
-60 56 52 0
-61 56 0
60 -61 -52 0
-60 -61 52 0
60 61 -56 52 0
-60 61 -56 -52 0
-62 56 0
60 -62 52 0
-60 -62 -52 0
60 62 -56 -52 0
-60 62 -56 52 0
63 64 -59 0
63 -59 60 0
-63 64 59 0
-63 59 60 0
63 -59 -56 0
-63 59 -56 0
63 -64 59 56 -60 0
-63 -64 -59 56 -60 0
64 -56 60 0
-64 56 60 0
-65 60 0
64 -65 -56 0
-64 -65 56 0
64 65 56 -60 0
-64 65 -56 -60 0
-66 60 0
64 -66 56 0
-64 -66 -56 0
64 66 -56 -60 0
-64 66 56 -60 0
67 -63 64 0
67 -63 60 0
-67 63 64 0
-67 63 60 0
67 -68 -63 0
-67 -68 63 0
67 68 63 -64 -60 0
-67 68 -63 -64 -60 0
68 64 -60 0
-68 64 60 0
-69 64 0
68 -69 -60 0
-68 -69 60 0
68 69 -64 60 0
-68 69 -64 -60 0
-70 64 0
68 -70 60 0
-68 -70 -60 0
68 70 -64 -60 0
-68 70 -64 60 0
71 -67 21 0
71 -67 68 0
-71 67 21 0
-71 67 68 0
71 -67 64 -49 0
71 -67 -64 49 0
-71 67 64 -49 0
-71 67 -64 49 0
71 67 -21 64 49 -68 0
71 67 -21 -64 -49 -68 0
-71 -67 -21 64 49 -68 0
-71 -67 -21 -64 -49 -68 0
73 21 -64 0
73 -21 64 0
-73 21 64 0
-73 -21 -64 0
72 49 -68 0
72 -49 68 0
-72 49 68 0
-72 -49 -68 0
74 -71 21 0
74 -71 72 0
-74 71 21 0
-74 71 72 0
74 -75 -71 0
-74 -75 71 0
74 75 71 -21 -72 0
-74 75 -71 -21 -72 0
75 21 -72 0
-75 21 72 0
-76 21 0
75 -76 -72 0
-75 -76 72 0
75 76 -21 72 0
-75 76 -21 -72 0
-77 21 0
75 -77 72 0
-75 -77 -72 0
75 77 -21 -72 0
-75 77 -21 72 0
78 79 -74 0
78 -74 75 0
-78 79 74 0
-78 74 75 0
78 -74 -21 0
-78 74 -21 0
78 -79 74 21 -75 0
-78 -79 -74 21 -75 0
79 -21 75 0
-79 21 75 0
-80 75 0
79 -80 -21 0
-79 -80 21 0
79 80 21 -75 0
-79 80 -21 -75 0
-81 75 0
79 -81 21 0
-79 -81 -21 0
79 81 -21 -75 0
-79 81 21 -75 0
82 -78 79 0
82 -78 75 0
-82 78 79 0
-82 78 75 0
82 -83 -78 0
-82 -83 78 0
82 83 78 -79 -75 0
-82 83 -78 -79 -75 0
83 79 -75 0
-83 79 75 0
-84 79 0
83 -84 -75 0
-83 -84 75 0
83 84 -79 75 0
-83 84 -79 -75 0
-85 79 0
83 -85 75 0
-83 -85 -75 0
83 85 -79 -75 0
-83 85 -79 75 0
86 87 -82 0
86 -82 83 0
-86 87 82 0
-86 82 83 0
86 -82 -79 0
-86 82 -79 0
86 -87 82 79 -83 0
-86 -87 -82 79 -83 0
87 -79 83 0
-87 79 83 0
-88 83 0
87 -88 -79 0
-87 -88 79 0
87 88 79 -83 0
-87 88 -79 -83 0
-89 83 0
87 -89 79 0
-87 -89 -79 0
87 89 -79 -83 0
-87 89 79 -83 0
90 -86 87 0
90 -86 83 0
-90 86 87 0
-90 86 83 0
90 -91 -86 0
-90 -91 86 0
90 91 86 -87 -83 0
-90 91 -86 -87 -83 0
91 87 -83 0
-91 87 83 0
-92 87 0
91 -92 -83 0
-91 -92 83 0
91 92 -87 83 0
-91 92 -87 -83 0
-93 87 0
91 -93 83 0
-91 -93 -83 0
91 93 -87 -83 0
-91 93 -87 83 0
94 -90 50 0
94 -90 68 0
-94 90 50 0
-94 90 68 0
94 -90 73 -45 0
94 -90 -73 45 0
-94 90 73 -45 0
-94 90 -73 45 0
94 90 -50 73 45 -68 0
94 90 -50 -73 -45 -68 0
-94 -90 -50 73 45 -68 0
-94 -90 -50 -73 -45 -68 0
96 50 -73 0
96 -50 73 0
-96 50 73 0
-96 -50 -73 0
95 45 -68 0
95 -45 68 0
-95 45 68 0
-95 -45 -68 0
97 -94 50 0
97 -94 95 0
-97 94 50 0
-97 94 95 0
97 -98 -94 0
-97 -98 94 0
97 98 94 -50 -95 0
-97 98 -94 -50 -95 0
98 50 -95 0
-98 50 95 0
-99 50 0
98 -99 -95 0
-98 -99 95 0
98 99 -50 95 0
-98 99 -50 -95 0
-100 50 0
98 -100 95 0
-98 -100 -95 0
98 100 -50 -95 0
-98 100 -50 95 0
101 102 -97 0
101 -97 98 0
-101 102 97 0
-101 97 98 0
101 -97 -50 0
-101 97 -50 0
101 -102 97 50 -98 0
-101 -102 -97 50 -98 0
102 -50 98 0
-102 50 98 0
-103 98 0
102 -103 -50 0
-102 -103 50 0
102 103 50 -98 0
-102 103 -50 -98 0
-104 98 0
102 -104 50 0
-102 -104 -50 0
102 104 -50 -98 0
-102 104 50 -98 0
105 -101 102 0
105 -101 98 0
-105 101 102 0
-105 101 98 0
105 -106 -101 0
-105 -106 101 0
105 106 101 -102 -98 0
-105 106 -101 -102 -98 0
106 102 -98 0
-106 102 98 0
-107 102 0
106 -107 -98 0
-106 -107 98 0
106 107 -102 98 0
-106 107 -102 -98 0
-108 102 0
106 -108 98 0
-106 -108 -98 0
106 108 -102 -98 0
-106 108 -102 98 0
109 110 -105 0
109 -105 106 0
-109 110 105 0
-109 105 106 0
109 -105 -102 0
-109 105 -102 0
109 -110 105 102 -106 0
-109 -110 -105 102 -106 0
110 -102 106 0
-110 102 106 0
-111 106 0
110 -111 -102 0
-110 -111 102 0
110 111 102 -106 0
-110 111 -102 -106 0
-112 106 0
110 -112 102 0
-110 -112 -102 0
110 112 -102 -106 0
-110 112 102 -106 0
113 -109 110 0
113 -109 106 0
-113 109 110 0
-113 109 106 0
113 -114 -109 0
-113 -114 109 0
113 114 109 -110 -106 0
-113 114 -109 -110 -106 0
114 110 -106 0
-114 110 106 0
-115 110 0
114 -115 -106 0
-114 -115 106 0
114 115 -110 106 0
-114 115 -110 -106 0
-116 110 0
114 -116 106 0
-114 -116 -106 0
114 116 -110 -106 0
-114 116 -110 106 0
117 -113 87 0
117 -113 114 0
-117 113 87 0
-117 113 114 0
117 -113 110 -91 0
117 -113 -110 91 0
-117 113 110 -91 0
-117 113 -110 91 0
117 113 -87 110 91 -114 0
117 113 -87 -110 -91 -114 0
-117 -113 -87 110 91 -114 0
-117 -113 -87 -110 -91 -114 0
119 87 -110 0
119 -87 110 0
-119 87 110 0
-119 -87 -110 0
118 91 -114 0
118 -91 114 0
-118 91 114 0
-118 -91 -114 0
120 -117 96 0
120 -117 68 0
-120 117 96 0
-120 117 68 0
120 -121 -117 0
-120 -121 117 0
120 121 117 -96 -68 0
-120 121 -117 -96 -68 0
121 96 -68 0
-121 96 68 0
-122 96 0
121 -122 -68 0
-121 -122 68 0
121 122 -96 68 0
-121 122 -96 -68 0
-123 96 0
121 -123 68 0
-121 -123 -68 0
121 123 -96 -68 0
-121 123 -96 68 0
124 125 -120 0
124 -120 121 0
-124 125 120 0
-124 120 121 0
124 -120 -96 0
-124 120 -96 0
124 -125 120 96 -121 0
-124 -125 -120 96 -121 0
125 -96 121 0
-125 96 121 0
-126 121 0
125 -126 -96 0
-125 -126 96 0
125 126 96 -121 0
-125 126 -96 -121 0
-127 121 0
125 -127 96 0
-125 -127 -96 0
125 127 -96 -121 0
-125 127 96 -121 0
128 -124 125 0
128 -124 121 0
-128 124 125 0
-128 124 121 0
128 -129 -124 0
-128 -129 124 0
128 129 124 -125 -121 0
-128 129 -124 -125 -121 0
129 125 -121 0
-129 125 121 0
-130 125 0
129 -130 -121 0
-129 -130 121 0
129 130 -125 121 0
-129 130 -125 -121 0
-131 125 0
129 -131 121 0
-129 -131 -121 0
129 131 -125 -121 0
-129 131 -125 121 0
132 133 -128 0
132 -128 129 0
-132 133 128 0
-132 128 129 0
132 -128 -125 0
-132 128 -125 0
132 -133 128 125 -129 0
-132 -133 -128 125 -129 0
133 -125 129 0
-133 125 129 0
-134 129 0
133 -134 -125 0
-133 -134 125 0
133 134 125 -129 0
-133 134 -125 -129 0
-135 129 0
133 -135 125 0
-133 -135 -125 0
133 135 -125 -129 0
-133 135 125 -129 0
136 -132 133 0
136 -132 129 0
-136 132 133 0
-136 132 129 0
136 -137 -132 0
-136 -137 132 0
136 137 132 -133 -129 0
-136 137 -132 -133 -129 0
137 133 -129 0
-137 133 129 0
-138 133 0
137 -138 -129 0
-137 -138 129 0
137 138 -133 129 0
-137 138 -133 -129 0
-139 133 0
137 -139 129 0
-137 -139 -129 0
137 139 -133 -129 0
-137 139 -133 129 0
140 -136 87 0
140 -136 137 0
-140 136 87 0
-140 136 137 0
140 -136 133 -118 0
140 -136 -133 118 0
-140 136 133 -118 0
-140 136 -133 118 0
140 136 -87 133 118 -137 0
140 136 -87 -133 -118 -137 0
-140 -136 -87 133 118 -137 0
-140 -136 -87 -133 -118 -137 0
142 87 -133 0
142 -87 133 0
-142 87 133 0
-142 -87 -133 0
141 118 -137 0
141 -118 137 0
-141 118 137 0
-141 -118 -137 0
143 -140 87 0
143 -140 141 0
-143 140 87 0
-143 140 141 0
143 -144 -140 0
-143 -144 140 0
143 144 140 -87 -141 0
-143 144 -140 -87 -141 0
144 87 -141 0
-144 87 141 0
-145 87 0
144 -145 -141 0
-144 -145 141 0
144 145 -87 141 0
-144 145 -87 -141 0
-146 87 0
144 -146 141 0
-144 -146 -141 0
144 146 -87 -141 0
-144 146 -87 141 0
147 148 -143 0
147 -143 144 0
-147 148 143 0
-147 143 144 0
147 -143 -87 0
-147 143 -87 0
147 -148 143 87 -144 0
-147 -148 -143 87 -144 0
148 -87 144 0
-148 87 144 0
-149 144 0
148 -149 -87 0
-148 -149 87 0
148 149 87 -144 0
-148 149 -87 -144 0
-150 144 0
148 -150 87 0
-148 -150 -87 0
148 150 -87 -144 0
-148 150 87 -144 0
151 -147 148 0
151 -147 144 0
-151 147 148 0
-151 147 144 0
151 -152 -147 0
-151 -152 147 0
151 152 147 -148 -144 0
-151 152 -147 -148 -144 0
152 148 -144 0
-152 148 144 0
-153 148 0
152 -153 -144 0
-152 -153 144 0
152 153 -148 144 0
-152 153 -148 -144 0
-154 148 0
152 -154 144 0
-152 -154 -144 0
152 154 -148 -144 0
-152 154 -148 144 0
155 156 -151 0
155 -151 152 0
-155 156 151 0
-155 151 152 0
155 -151 -148 0
-155 151 -148 0
155 -156 151 148 -152 0
-155 -156 -151 148 -152 0
156 -148 152 0
-156 148 152 0
-157 152 0
156 -157 -148 0
-156 -157 148 0
156 157 148 -152 0
-156 157 -148 -152 0
-158 152 0
156 -158 148 0
-156 -158 -148 0
156 158 -148 -152 0
-156 158 148 -152 0
159 -155 156 0
159 -155 152 0
-159 155 156 0
-159 155 152 0
159 -160 -155 0
-159 -160 155 0
159 160 155 -156 -152 0
-159 160 -155 -156 -152 0
160 156 -152 0
-160 156 152 0
-161 156 0
160 -161 -152 0
-160 -161 152 0
160 161 -156 152 0
-160 161 -156 -152 0
-162 156 0
160 -162 152 0
-160 -162 -152 0
160 162 -156 -152 0
-160 162 -156 152 0
163 -159 119 0
163 -159 137 0
-163 159 119 0
-163 159 137 0
163 -159 142 -114 0
163 -159 -142 114 0
-163 159 142 -114 0
-163 159 -142 114 0
163 159 -119 142 114 -137 0
163 159 -119 -142 -114 -137 0
-163 -159 -119 142 114 -137 0
-163 -159 -119 -142 -114 -137 0
165 119 -142 0
165 -119 142 0
-165 119 142 0
-165 -119 -142 0
164 114 -137 0
164 -114 137 0
-164 114 137 0
-164 -114 -137 0
166 -163 119 0
166 -163 164 0
-166 163 119 0
-166 163 164 0
166 -167 -163 0
-166 -167 163 0
166 167 163 -119 -164 0
-166 167 -163 -119 -164 0
167 119 -164 0
-167 119 164 0
-168 119 0
167 -168 -164 0
-167 -168 164 0
167 168 -119 164 0
-167 168 -119 -164 0
-169 119 0
167 -169 164 0
-167 -169 -164 0
167 169 -119 -164 0
-167 169 -119 164 0
170 171 -166 0
170 -166 167 0
-170 171 166 0
-170 166 167 0
170 -166 -119 0
-170 166 -119 0
170 -171 166 119 -167 0
-170 -171 -166 119 -167 0
171 -119 167 0
-171 119 167 0
-172 167 0
171 -172 -119 0
-171 -172 119 0
171 172 119 -167 0
-171 172 -119 -167 0
-173 167 0
171 -173 119 0
-171 -173 -119 0
171 173 -119 -167 0
-171 173 119 -167 0
174 -170 171 0
174 -170 167 0
-174 170 171 0
-174 170 167 0
174 -175 -170 0
-174 -175 170 0
174 175 170 -171 -167 0
-174 175 -170 -171 -167 0
175 171 -167 0
-175 171 167 0
-176 171 0
175 -176 -167 0
-175 -176 167 0
175 176 -171 167 0
-175 176 -171 -167 0
-177 171 0
175 -177 167 0
-175 -177 -167 0
175 177 -171 -167 0
-175 177 -171 167 0
178 179 -174 0
178 -174 175 0
-178 179 174 0
-178 174 175 0
178 -174 -171 0
-178 174 -171 0
178 -179 174 171 -175 0
-178 -179 -174 171 -175 0
179 -171 175 0
-179 171 175 0
-180 175 0
179 -180 -171 0
-179 -180 171 0
179 180 171 -175 0
-179 180 -171 -175 0
-181 175 0
179 -181 171 0
-179 -181 -171 0
179 181 -171 -175 0
-179 181 171 -175 0
182 -178 179 0
182 -178 175 0
-182 178 179 0
-182 178 175 0
182 -183 -178 0
-182 -183 178 0
182 183 178 -179 -175 0
-182 183 -178 -179 -175 0
183 179 -175 0
-183 179 175 0
-184 179 0
183 -184 -175 0
-183 -184 175 0
183 184 -179 175 0
-183 184 -179 -175 0
-185 179 0
183 -185 175 0
-183 -185 -175 0
183 185 -179 -175 0
-183 185 -179 175 0
186 -182 156 0
186 -182 183 0
-186 182 156 0
-186 182 183 0
186 -182 179 -160 0
186 -182 -179 160 0
-186 182 179 -160 0
-186 182 -179 160 0
186 182 -156 179 160 -183 0
186 182 -156 -179 -160 -183 0
-186 -182 -156 179 160 -183 0
-186 -182 -156 -179 -160 -183 0
188 156 -179 0
188 -156 179 0
-188 156 179 0
-188 -156 -179 0
187 160 -183 0
187 -160 183 0
-187 160 183 0
-187 -160 -183 0
189 -186 165 0
189 -186 137 0
-189 186 165 0
-189 186 137 0
189 -190 -186 0
-189 -190 186 0
189 190 186 -165 -137 0
-189 190 -186 -165 -137 0
190 165 -137 0
-190 165 137 0
-191 165 0
190 -191 -137 0
-190 -191 137 0
190 191 -165 137 0
-190 191 -165 -137 0
-192 165 0
190 -192 137 0
-190 -192 -137 0
190 192 -165 -137 0
-190 192 -165 137 0
193 194 -189 0
193 -189 190 0
-193 194 189 0
-193 189 190 0
193 -189 -165 0
-193 189 -165 0
193 -194 189 165 -190 0
-193 -194 -189 165 -190 0
194 -165 190 0
-194 165 190 0
-195 190 0
194 -195 -165 0
-194 -195 165 0
194 195 165 -190 0
-194 195 -165 -190 0
-196 190 0
194 -196 165 0
-194 -196 -165 0
194 196 -165 -190 0
-194 196 165 -190 0
197 -193 194 0
197 -193 190 0
-197 193 194 0
-197 193 190 0
197 -198 -193 0
-197 -198 193 0
197 198 193 -194 -190 0
-197 198 -193 -194 -190 0
198 194 -190 0
-198 194 190 0
-199 194 0
198 -199 -190 0
-198 -199 190 0
198 199 -194 190 0
-198 199 -194 -190 0
-200 194 0
198 -200 190 0
-198 -200 -190 0
198 200 -194 -190 0
-198 200 -194 190 0
201 202 -197 0
201 -197 198 0
-201 202 197 0
-201 197 198 0
201 -197 -194 0
-201 197 -194 0
201 -202 197 194 -198 0
-201 -202 -197 194 -198 0
202 -194 198 0
-202 194 198 0
-203 198 0
202 -203 -194 0
-202 -203 194 0
202 203 194 -198 0
-202 203 -194 -198 0
-204 198 0
202 -204 194 0
-202 -204 -194 0
202 204 -194 -198 0
-202 204 194 -198 0
205 -201 202 0
205 -201 198 0
-205 201 202 0
-205 201 198 0
205 -206 -201 0
-205 -206 201 0
205 206 201 -202 -198 0
-205 206 -201 -202 -198 0
206 202 -198 0
-206 202 198 0
-207 202 0
206 -207 -198 0
-206 -207 198 0
206 207 -202 198 0
-206 207 -202 -198 0
-208 202 0
206 -208 198 0
-206 -208 -198 0
206 208 -202 -198 0
-206 208 -202 198 0
209 -205 156 0
209 -205 206 0
-209 205 156 0
-209 205 206 0
209 -205 202 -187 0
209 -205 -202 187 0
-209 205 202 -187 0
-209 205 -202 187 0
209 205 -156 202 187 -206 0
209 205 -156 -202 -187 -206 0
-209 -205 -156 202 187 -206 0
-209 -205 -156 -202 -187 -206 0
211 156 -202 0
211 -156 202 0
-211 156 202 0
-211 -156 -202 0
210 187 -206 0
210 -187 206 0
-210 187 206 0
-210 -187 -206 0
212 -209 156 0
212 -209 210 0
-212 209 156 0
-212 209 210 0
212 -213 -209 0
-212 -213 209 0
212 213 209 -156 -210 0
-212 213 -209 -156 -210 0
213 156 -210 0
-213 156 210 0
-214 156 0
213 -214 -210 0
-213 -214 210 0
213 214 -156 210 0
-213 214 -156 -210 0
-215 156 0
213 -215 210 0
-213 -215 -210 0
213 215 -156 -210 0
-213 215 -156 210 0
216 217 -212 0
216 -212 213 0
-216 217 212 0
-216 212 213 0
216 -212 -156 0
-216 212 -156 0
216 -217 212 156 -213 0
-216 -217 -212 156 -213 0
217 -156 213 0
-217 156 213 0
-218 213 0
217 -218 -156 0
-217 -218 156 0
217 218 156 -213 0
-217 218 -156 -213 0
-219 213 0
217 -219 156 0
-217 -219 -156 0
217 219 -156 -213 0
-217 219 156 -213 0
220 -216 217 0
220 -216 213 0
-220 216 217 0
-220 216 213 0
220 -221 -216 0
-220 -221 216 0
220 221 216 -217 -213 0
-220 221 -216 -217 -213 0
221 217 -213 0
-221 217 213 0
-222 217 0
221 -222 -213 0
-221 -222 213 0
221 222 -217 213 0
-221 222 -217 -213 0
-223 217 0
221 -223 213 0
-221 -223 -213 0
221 223 -217 -213 0
-221 223 -217 213 0
224 225 -220 0
224 -220 221 0
-224 225 220 0
-224 220 221 0
224 -220 -217 0
-224 220 -217 0
224 -225 220 217 -221 0
-224 -225 -220 217 -221 0
225 -217 221 0
-225 217 221 0
-226 221 0
225 -226 -217 0
-225 -226 217 0
225 226 217 -221 0
-225 226 -217 -221 0
-227 221 0
225 -227 217 0
-225 -227 -217 0
225 227 -217 -221 0
-225 227 217 -221 0
228 -224 225 0
228 -224 221 0
-228 224 225 0
-228 224 221 0
228 -229 -224 0
-228 -229 224 0
228 229 224 -225 -221 0
-228 229 -224 -225 -221 0
229 225 -221 0
-229 225 221 0
-230 225 0
229 -230 -221 0
-229 -230 221 0
229 230 -225 221 0
-229 230 -225 -221 0
-231 225 0
229 -231 221 0
-229 -231 -221 0
229 231 -225 -221 0
-229 231 -225 221 0
232 -228 188 0
232 -228 206 0
-232 228 188 0
-232 228 206 0
232 -228 211 -183 0
232 -228 -211 183 0
-232 228 211 -183 0
-232 228 -211 183 0
232 228 -188 211 183 -206 0
232 228 -188 -211 -183 -206 0
-232 -228 -188 211 183 -206 0
-232 -228 -188 -211 -183 -206 0
234 188 -211 0
234 -188 211 0
-234 188 211 0
-234 -188 -211 0
233 183 -206 0
233 -183 206 0
-233 183 206 0
-233 -183 -206 0
235 -232 188 0
235 -232 233 0
-235 232 188 0
-235 232 233 0
235 -236 -232 0
-235 -236 232 0
235 236 232 -188 -233 0
-235 236 -232 -188 -233 0
236 188 -233 0
-236 188 233 0
-237 188 0
236 -237 -233 0
-236 -237 233 0
236 237 -188 233 0
-236 237 -188 -233 0
-238 188 0
236 -238 233 0
-236 -238 -233 0
236 238 -188 -233 0
-236 238 -188 233 0
239 240 -235 0
239 -235 236 0
-239 240 235 0
-239 235 236 0
239 -235 -188 0
-239 235 -188 0
239 -240 235 188 -236 0
-239 -240 -235 188 -236 0
240 -188 236 0
-240 188 236 0
-241 236 0
240 -241 -188 0
-240 -241 188 0
240 241 188 -236 0
-240 241 -188 -236 0
-242 236 0
240 -242 188 0
-240 -242 -188 0
240 242 -188 -236 0
-240 242 188 -236 0
243 -239 240 0
243 -239 236 0
-243 239 240 0
-243 239 236 0
243 -244 -239 0
-243 -244 239 0
243 244 239 -240 -236 0
-243 244 -239 -240 -236 0
244 240 -236 0
-244 240 236 0
-245 240 0
244 -245 -236 0
-244 -245 236 0
244 245 -240 236 0
-244 245 -240 -236 0
-246 240 0
244 -246 236 0
-244 -246 -236 0
244 246 -240 -236 0
-244 246 -240 236 0
247 248 -243 0
247 -243 244 0
-247 248 243 0
-247 243 244 0
247 -243 -240 0
-247 243 -240 0
247 -248 243 240 -244 0
-247 -248 -243 240 -244 0
248 -240 244 0
-248 240 244 0
-249 244 0
248 -249 -240 0
-248 -249 240 0
248 249 240 -244 0
-248 249 -240 -244 0
-250 244 0
248 -250 240 0
-248 -250 -240 0
248 250 -240 -244 0
-248 250 240 -244 0
251 -247 248 0
251 -247 244 0
-251 247 248 0
-251 247 244 0
251 -252 -247 0
-251 -252 247 0
251 252 247 -248 -244 0
-251 252 -247 -248 -244 0
252 248 -244 0
-252 248 244 0
-253 248 0
252 -253 -244 0
-252 -253 244 0
252 253 -248 244 0
-252 253 -248 -244 0
-254 248 0
252 -254 244 0
-252 -254 -244 0
252 254 -248 -244 0
-252 254 -248 244 0
255 -251 234 0
255 -251 206 0
-255 251 234 0
-255 251 206 0
255 -256 -251 0
-255 -256 251 0
255 256 251 -234 -206 0
-255 256 -251 -234 -206 0
256 234 -206 0
-256 234 206 0
-257 234 0
256 -257 -206 0
-256 -257 206 0
256 257 -234 206 0
-256 257 -234 -206 0
-258 234 0
256 -258 206 0
-256 -258 -206 0
256 258 -234 -206 0
-256 258 -234 206 0
259 260 -255 0
259 -255 256 0
-259 260 255 0
-259 255 256 0
259 -255 -234 0
-259 255 -234 0
259 -260 255 234 -256 0
-259 -260 -255 234 -256 0
260 -234 256 0
-260 234 256 0
-261 256 0
260 -261 -234 0
-260 -261 234 0
260 261 234 -256 0
-260 261 -234 -256 0
-262 256 0
260 -262 234 0
-260 -262 -234 0
260 262 -234 -256 0
-260 262 234 -256 0
263 -259 260 0
263 -259 256 0
-263 259 260 0
-263 259 256 0
263 -264 -259 0
-263 -264 259 0
263 264 259 -260 -256 0
-263 264 -259 -260 -256 0
264 260 -256 0
-264 260 256 0
-265 260 0
264 -265 -256 0
-264 -265 256 0
264 265 -260 256 0
-264 265 -260 -256 0
-266 260 0
264 -266 256 0
-264 -266 -256 0
264 266 -260 -256 0
-264 266 -260 256 0
267 268 -263 0
267 -263 264 0
-267 268 263 0
-267 263 264 0
267 -263 -260 0
-267 263 -260 0
267 -268 263 260 -264 0
-267 -268 -263 260 -264 0
268 -260 264 0
-268 260 264 0
-269 264 0
268 -269 -260 0
-268 -269 260 0
268 269 260 -264 0
-268 269 -260 -264 0
-270 264 0
268 -270 260 0
-268 -270 -260 0
268 270 -260 -264 0
-268 270 260 -264 0
271 -267 268 0
271 -267 264 0
-271 267 268 0
-271 267 264 0
271 -272 -267 0
-271 -272 267 0
271 272 267 -268 -264 0
-271 272 -267 -268 -264 0
272 268 -264 0
-272 268 264 0
-273 268 0
272 -273 -264 0
-272 -273 264 0
272 273 -268 264 0
-272 273 -268 -264 0
-274 268 0
272 -274 264 0
-272 -274 -264 0
272 274 -268 -264 0
-272 274 -268 264 0
