wmc_benchmarks/MQTBench/realamprandom_nativegates_ibm_qiskit_opt0_3.qasm
// Used Gate Set: ['id', 'rz', 'sx', 'x', 'cx', 'measure', 'barrier']
OPENQASM 2.0;
include "qelib1.inc";
qreg q[3];
rz(0) q[0];
rx(0.5*pi) q[0];
rz(7.987943186487718) q[0];
rx(0.5*pi) q[0];
rz(3*pi) q[0];
rz(0) q[1];
rx(0.5*pi) q[1];
rz(3.2719809969001195) q[1];
rx(0.5*pi) q[1];
rz(3*pi) q[1];
cx q[0],q[1];
rz(0) q[2];
rx(0.5*pi) q[2];
rz(7.122921933198846) q[2];
rx(0.5*pi) q[2];
rz(3*pi) q[2];
cx q[0],q[2];
rz(0) q[0];
rx(0.5*pi) q[0];
rz(7.846466206315428) q[0];
rx(0.5*pi) q[0];
rz(3*pi) q[0];
cx q[1],q[2];
rz(0) q[1];
rx(0.5*pi) q[1];
rz(6.273804588815422) q[1];
rx(0.5*pi) q[1];
rz(3*pi) q[1];
cx q[0],q[1];
rz(0) q[2];
rx(0.5*pi) q[2];
rz(4.554031633892473) q[2];
rx(0.5*pi) q[2];
rz(3*pi) q[2];
cx q[0],q[2];
rz(0) q[0];
rx(0.5*pi) q[0];
rz(4.38605833534536) q[0];
rx(0.5*pi) q[0];
rz(3*pi) q[0];
cx q[1],q[2];
rz(0) q[1];
rx(0.5*pi) q[1];
rz(7.920148050137117) q[1];
rx(0.5*pi) q[1];
rz(3*pi) q[1];
cx q[0],q[1];
rz(0) q[2];
rx(0.5*pi) q[2];
rz(4.2041473771643645) q[2];
rx(0.5*pi) q[2];
rz(3*pi) q[2];
cx q[0],q[2];
rz(0) q[0];
rx(0.5*pi) q[0];
rz(3.6966480760469094) q[0];
rx(0.5*pi) q[0];
rz(3*pi) q[0];
cx q[1],q[2];
rz(0) q[1];
rx(0.5*pi) q[1];
rz(7.447835394489607) q[1];
rx(0.5*pi) q[1];
rz(3*pi) q[1];
rz(0) q[2];
rx(0.5*pi) q[2];
rz(9.131939718364599) q[2];
rx(0.5*pi) q[2];
rz(3*pi) q[2];
